c   #vars: 75   #clauses: 335   #literals: 900
c 
p cnf 75 335
-1 -2 0
45 46 70 71 0
1 2 -27 58 0
-3 -4 0
21 22 60 61 0
-5 -6 0
-7 -8 0
-9 -10 0
-11 -12 0
-13 -14 0
-15 -16 0
-17 -18 0
-19 -20 0
-21 -22 0
-23 -24 0
-25 -26 0
-27 -28 0
-29 -30 0
51 -54 60 61 0
-32 -33 0
-34 -35 0
-36 -37 0
23 24 70 71 0
11 12 42 -64 0
-38 -39 0
-40 -41 0
7 8 -11 31 0
-43 -44 0
-45 -46 0
-47 -48 0
-49 -50 0
-1 49 50 58 0
3 4 64 65 0
29 30 52 53 0
-52 -53 0
5 6 45 46 0
-54 -55 0
-56 -57 0
-40 49 50 59 0
-60 -61 0
-62 -63 0
-64 -65 0
9 10 52 53 0
-66 -67 0
-68 -69 0
-70 -71 0
45 46 52 53 0
-72 -73 0
5 6 29 30 0
40 41 56 57 0
-74 -75 0
-1 -45 0
-2 -46 0
-1 -54 0
-2 -55 0
-27 49 50 58 0
-1 -56 0
-2 -57 0
17 18 52 53 0
-7 49 50 59 0
-2 -58 0
40 41 72 73 0
-1 -72 0
-2 -73 0
5 6 72 73 0
32 33 72 73 0
-3 -32 0
-4 -33 0
-3 -47 0
-4 -48 0
23 24 40 41 0
-3 -64 0
-4 -65 0
23 24 38 39 0
-3 -66 0
-4 -67 0
7 8 34 35 0
7 8 -40 59 0
34 35 68 69 0
-5 -29 0
-6 -30 0
-5 -34 0
-6 -35 0
38 39 54 55 0
-5 -45 0
-6 -46 0
49 50 70 71 0
-5 -47 0
-6 -48 0
43 44 66 67 0
-5 -60 0
-6 -61 0
-5 -68 0
-6 -69 0
-5 -72 0
-6 -73 0
7 8 49 50 0
1 2 45 46 0
42 64 65 -72 0
-25 51 60 61 0
-8 -31 0
25 26 38 39 0
-7 -34 0
-8 -35 0
11 12 43 44 0
-7 -38 0
-8 -39 0
43 44 52 53 0
-7 -49 0
-8 -50 0
-8 -59 0
-7 -62 0
-8 -63 0
9 10 62 63 0
-7 -66 0
-8 -67 0
19 20 40 41 0
-7 -74 0
-8 -75 0
-9 -32 0
-10 -33 0
11 12 42 -72 0
-9 -36 0
-10 -37 0
13 14 34 35 0
-7 11 12 31 0
15 16 64 65 0
-25 51 54 55 0
-9 -52 0
-10 -53 0
21 22 70 71 0
-9 -62 0
-10 -63 0
-9 -72 0
-10 -73 0
-11 -27 0
-12 -28 0
25 26 51 -60 0
-12 -31 0
-11 31 56 57 0
-12 -42 0
19 20 45 46 0
-11 -43 0
-12 -44 0
1 2 54 55 0
-11 -74 0
-12 -75 0
17 18 29 30 0
-13 -27 0
-14 -28 0
-13 -29 0
-14 -30 0
17 18 38 39 0
-13 -34 0
-14 -35 0
9 10 36 37 0
-13 -66 0
-14 -67 0
19 20 32 33 0
-13 -68 0
-14 -69 0
17 18 54 55 0
49 50 64 65 0
-13 -72 0
-14 -73 0
5 6 47 48 0
-15 -27 0
-16 -28 0
36 37 60 61 0
-15 -64 0
-16 -65 0
1 2 72 73 0
-15 -66 0
-16 -67 0
7 8 38 39 0
-15 -74 0
-16 -75 0
5 6 34 35 0
-17 -29 0
-18 -30 0
-17 -38 0
-18 -39 0
-17 -52 0
-18 -53 0
-17 -54 0
-18 -55 0
-19 -32 0
-20 -33 0
42 -64 72 73 0
-19 -40 0
-20 -41 0
3 4 32 33 0
-19 -45 0
-20 -46 0
23 24 47 48 0
13 14 72 73 0
23 24 36 37 0
-19 -74 0
-20 -75 0
13 14 66 67 0
7 8 31 -56 0
-21 -45 0
-22 -46 0
11 12 27 28 0
-21 -49 0
-22 -50 0
15 16 27 28 0
-21 -60 0
-22 -61 0
7 8 -49 59 0
-21 -70 0
-22 -71 0
-23 -36 0
-24 -37 0
-23 -38 0
-24 -39 0
47 48 74 75 0
-23 -40 0
-24 -41 0
21 22 49 50 0
-23 -47 0
-24 -48 0
15 16 66 67 0
-23 -60 0
-24 -61 0
5 6 68 69 0
-23 -68 0
-24 -69 0
19 20 74 75 0
-23 -70 0
-24 -71 0
25 26 54 55 0
-25 -38 0
-26 -39 0
3 4 66 67 0
-25 -47 0
-26 -48 0
45 46 66 67 0
27 28 -49 58 0
-26 -51 0
13 14 68 69 0
-25 -54 0
-26 -55 0
21 22 45 46 0
-27 -54 0
-28 -55 0
3 4 47 48 0
40 41 -49 59 0
-28 -58 0
23 24 68 69 0
-29 -52 0
-30 -53 0
32 33 62 63 0
-29 -62 0
-30 -63 0
13 14 29 30 0
25 26 51 -54 0
-31 -57 0
5 6 60 61 0
-32 -54 0
-33 -55 0
29 30 62 63 0
-32 -56 0
-33 -57 0
-32 -62 0
-33 -63 0
-32 -72 0
-33 -73 0
23 24 60 61 0
27 28 54 55 0
-34 -68 0
-35 -69 0
7 8 74 75 0
-36 -60 0
-37 -61 0
9 10 72 73 0
-36 -62 0
-37 -63 0
-38 -54 0
-39 -55 0
36 37 62 63 0
-40 -56 0
-41 -57 0
-11 42 72 73 0
-41 -59 0
47 48 56 57 0
-40 -60 0
-41 -61 0
25 26 47 48 0
-40 -72 0
-41 -73 0
-7 31 56 57 0
-42 -65 0
11 12 31 -56 0
-42 -73 0
7 8 66 67 0
32 33 54 55 0
-11 42 64 65 0
-43 -52 0
-44 -53 0
1 2 56 57 0
-43 -66 0
-44 -67 0
51 54 55 -60 0
-43 -72 0
-44 -73 0
40 41 60 61 0
-45 -52 0
-46 -53 0
-45 -66 0
-46 -67 0
11 12 74 75 0
-45 -70 0
-46 -71 0
43 44 72 73 0
-47 -56 0
-48 -57 0
-47 -74 0
-48 -75 0
9 10 32 33 0
-7 40 41 59 0
-50 -58 0
-50 -59 0
32 33 56 57 0
-49 -64 0
-50 -65 0
15 16 74 75 0
-49 -70 0
-50 -71 0
13 14 27 28 0
7 8 62 63 0
-1 27 28 58 0
-51 -55 0
1 2 -49 58 0
-51 -61 0
